;symbolic execution tree
(push)
(assert (le x0 java.lang.reflect.Field))
(check-sat)
(push)
(assert (le x0 java.lang.reflect.Field))
(check-sat)
(push)
(assert (le x0 java.lang.reflect.Field))
(check-sat)
(push)
(assert (le x0 java.lang.reflect.Field))
(check-sat)
(pop)
(push)
(assert (not (le x0 java.lang.reflect.Field)))
(check-sat)
(pop)
(push)
(assert (le x0 java.lang.reflect.Field))
(check-sat)
(pop)
(push)
(assert (not (le x0 java.lang.reflect.Field)))
(check-sat)
(pop)
(pop)
(push)
(assert (not (le x0 java.lang.reflect.Field)))
(check-sat)
(pop)
(pop)
(push)
(assert (not (le x0 java.lang.reflect.Field)))
(check-sat)
(pop)
(push)
(assert (le x0 java.lang.reflect.Field))
(check-sat)
(push)
(assert (le x0 java.lang.reflect.Field))
(check-sat)
(push)
(assert (le x1 java.lang.StringBuffer))
(check-sat)
(pop)
(push)
(assert (not (le x1 java.lang.StringBuffer)))
(check-sat)
(pop)
(pop)
(push)
(assert (not (le x0 java.lang.reflect.Field)))
(check-sat)
(pop)
(pop)
(push)
(assert (not (le x0 java.lang.reflect.Field)))
(check-sat)
(pop)
(push)
(assert (le x0 java.lang.reflect.Field))
(check-sat)
(push)
(assert (le x1 java.lang.StringBuffer))
(check-sat)
(push)
(assert (le x1 java.lang.StringBuffer))
(check-sat)
(pop)
(push)
(assert (not (le x1 java.lang.StringBuffer)))
(check-sat)
(pop)
(pop)
(push)
(assert (not (le x1 java.lang.StringBuffer)))
(check-sat)
(pop)
(push)
(assert (le x1 com.lowagie.text.Phrase))
(check-sat)
(pop)
(push)
(assert (le x1 java.util.TreeSet))
(check-sat)
(pop)
(push)
(assert (le x1 org.dom4j.tree.BackedList))
(check-sat)
(push)
(assert (le x0 java.lang.reflect.Field))
(check-sat)
(pop)
(push)
(assert (not (le x0 java.lang.reflect.Field)))
(check-sat)
(pop)
(push)
(assert (le x0 java.lang.reflect.Field))
(check-sat)
(pop)
(push)
(assert (not (le x0 java.lang.reflect.Field)))
(check-sat)
(pop)
(pop)
(push)
(assert (le x1 com.lowagie.text.Cell))
(check-sat)
(pop)
(push)
(assert (le x1 java.util.LinkedList))
(check-sat)
(pop)
(push)
(assert (le x1 java.util.Vector))
(check-sat)
(push)
(assert (le x0 java.lang.reflect.Field))
(check-sat)
(push)
(assert (le x1 java.util.ArrayList))
(check-sat)
(pop)
(push)
(assert (not (le x1 java.util.ArrayList)))
(check-sat)
(pop)
(pop)
(push)
(assert (not (le x0 java.lang.reflect.Field)))
(check-sat)
(pop)
(pop)
(push)
(assert (le x1 com.lowagie.text.Section))
(check-sat)
(push)
(assert (le x1 java.util.ArrayList))
(check-sat)
(pop)
(push)
(assert (not (le x1 java.util.ArrayList)))
(check-sat)
(pop)
(pop)
(push)
(assert (le x1 java.util.HashSet))
(check-sat)
(pop)
(push)
(assert (le x1 java.util.AbstractList))
(check-sat)
(push)
(assert (not (le x1 org.dom4j.tree.ContentListFacade)))
(check-sat)
(push)
(assert (not (le x1 java.util.Vector)))
(check-sat)
(push)
(assert (not (le x1 java.util.ArrayList)))
(check-sat)
(pop)
(pop)
(pop)
(pop)
(push)
(assert (le x1 org.dom4j.tree.ContentListFacade))
(check-sat)
(pop)
(push)
(assert (le x1 java.util.ArrayList))
(check-sat)
(push)
(assert (not (le x1 com.lowagie.text.Section)))
(check-sat)
(push)
(assert (not (le x1 org.dom4j.tree.BackedList)))
(check-sat)
(push)
(assert (not (le x1 com.lowagie.text.Phrase)))
(check-sat)
(pop)
(pop)
(pop)
(pop)
(push)
(assert (le x1 java.util.AbstractCollection))
(check-sat)
(push)
(assert (not (le x1 java.util.AbstractList)))
(check-sat)
(pop)
(pop)
(push)
(assert (le x1 java.lang.String))
(check-sat)
(pop)
(push)
(assert (not (le x1 java.lang.String)))
(check-sat)
(push)
(assert (le x0 java.lang.reflect.Field))
(check-sat)
(pop)
(push)
(assert (not (le x0 java.lang.reflect.Field)))
(check-sat)
(pop)
(push)
(assert (le x1 java.lang.String))
(check-sat)
(pop)
(push)
(assert (not (le x1 java.lang.String)))
(check-sat)
(push)
(assert (le x0 java.lang.reflect.Field))
(check-sat)
(pop)
(push)
(assert (not (le x0 java.lang.reflect.Field)))
(check-sat)
(pop)
(push)
(assert (le x0 java.lang.reflect.Field))
(check-sat)
(pop)
(push)
(assert (not (le x0 java.lang.reflect.Field)))
(check-sat)
(pop)
(pop)
(pop)
(push)
(assert (le x1 java.lang.String))
(check-sat)
(pop)
(push)
(assert (not (le x1 java.lang.String)))
(check-sat)
(pop)
(pop)
(push)
(assert (not (le x0 java.lang.reflect.Field)))
(check-sat)
(pop)
(push)
(assert (le x0 java.lang.reflect.Field))
(check-sat)
(push)
(assert (le x0 java.lang.reflect.Field))
(check-sat)
(pop)
(push)
(assert (not (le x0 java.lang.reflect.Field)))
(check-sat)
(pop)
(pop)
(push)
(assert (not (le x0 java.lang.reflect.Field)))
(check-sat)
(pop)
(push)
(assert (le x0 java.lang.reflect.Field))
(check-sat)
(push)
(assert (le x0 java.lang.reflect.Field))
(check-sat)
(pop)
(push)
(assert (not (le x0 java.lang.reflect.Field)))
(check-sat)
(pop)
(pop)
(push)
(assert (not (le x0 java.lang.reflect.Field)))
(check-sat)
(pop)
(push)
(assert (le x0 java.lang.reflect.Field))
(check-sat)
(push)
(assert (le x0 java.lang.reflect.Field))
(check-sat)
(pop)
(push)
(assert (not (le x0 java.lang.reflect.Field)))
(check-sat)
(pop)
(push)
(assert (le x0 java.lang.reflect.Field))
(check-sat)
(pop)
(push)
(assert (not (le x0 java.lang.reflect.Field)))
(check-sat)
(pop)
(pop)
(push)
(assert (not (le x0 java.lang.reflect.Field)))
(check-sat)
(pop)
(push)
(assert (le x1 com.lowagie.text.pdf.PdfObject))
(check-sat)
(pop)
(push)
(assert (not (le x1 com.lowagie.text.pdf.PdfObject)))
(check-sat)
(push)
(assert (le x0 java.lang.reflect.Field))
(check-sat)
(push)
(assert (le x0 java.lang.reflect.Field))
(check-sat)
(push)
(assert (le x1 com.lowagie.text.pdf.PdfObject))
(check-sat)
(pop)
(push)
(assert (not (le x1 com.lowagie.text.pdf.PdfObject)))
(check-sat)
(pop)
(pop)
(push)
(assert (not (le x0 java.lang.reflect.Field)))
(check-sat)
(pop)
(push)
(assert (le x1 com.lowagie.text.pdf.PdfObject))
(check-sat)
(pop)
(push)
(assert (not (le x1 com.lowagie.text.pdf.PdfObject)))
(check-sat)
(pop)
(push)
(assert (le x0 java.lang.reflect.Field))
(check-sat)
(pop)
(push)
(assert (not (le x0 java.lang.reflect.Field)))
(check-sat)
(pop)
(pop)
(push)
(assert (not (le x0 java.lang.reflect.Field)))
(check-sat)
(pop)
(push)
(assert (le x0 java.lang.reflect.Field))
(check-sat)
(push)
(assert (le x0 java.lang.reflect.Field))
(check-sat)
(pop)
(push)
(assert (not (le x0 java.lang.reflect.Field)))
(check-sat)
(pop)
(pop)
(push)
(assert (not (le x0 java.lang.reflect.Field)))
(check-sat)
(pop)
(push)
(assert (le x1 com.lowagie.text.pdf.PdfObject))
(check-sat)
(pop)
(push)
(assert (not (le x1 com.lowagie.text.pdf.PdfObject)))
(check-sat)
(pop)
(pop)
(push)
(assert (le x1 java.lang.StringBuffer))
(check-sat)
(pop)
(push)
(assert (not (le x1 java.lang.StringBuffer)))
(check-sat)
(push)
(assert (le x1 java.lang.StringBuffer))
(check-sat)
(pop)
(push)
(assert (not (le x1 java.lang.StringBuffer)))
(check-sat)
(pop)
(pop)
(push)
(assert (le x0 java.lang.reflect.Field))
(check-sat)
(push)
(assert (le x0 java.lang.reflect.Field))
(check-sat)
(pop)
(push)
(assert (not (le x0 java.lang.reflect.Field)))
(check-sat)
(pop)
(push)
(assert (le x1 com.lowagie.text.pdf.PdfObject))
(check-sat)
(pop)
(push)
(assert (not (le x1 com.lowagie.text.pdf.PdfObject)))
(check-sat)
(pop)
(push)
(assert (le x0 java.lang.reflect.Field))
(check-sat)
(push)
(assert (le x1 com.lowagie.text.pdf.PdfName))
(check-sat)
(pop)
(push)
(assert (not (le x1 com.lowagie.text.pdf.PdfName)))
(check-sat)
(pop)
(pop)
(push)
(assert (not (le x0 java.lang.reflect.Field)))
(check-sat)
(pop)
(pop)
(push)
(assert (not (le x0 java.lang.reflect.Field)))
(check-sat)
(pop)
(push)
(assert (le x1 java.lang.StringBuffer))
(check-sat)
(pop)
(push)
(assert (not (le x1 java.lang.StringBuffer)))
(check-sat)
(push)
(assert (le x1 java.lang.StringBuffer))
(check-sat)
(pop)
(push)
(assert (not (le x1 java.lang.StringBuffer)))
(check-sat)
(pop)
(push)
(assert (le x0 java.lang.reflect.Field))
(check-sat)
(push)
(assert (le x0 java.lang.reflect.Field))
(check-sat)
(pop)
(push)
(assert (not (le x0 java.lang.reflect.Field)))
(check-sat)
(pop)
(push)
(assert (le x1 java.lang.StringBuffer))
(check-sat)
(pop)
(push)
(assert (not (le x1 java.lang.StringBuffer)))
(check-sat)
(push)
(assert (le x1 java.lang.StringBuffer))
(check-sat)
(pop)
(push)
(assert (not (le x1 java.lang.StringBuffer)))
(check-sat)
(pop)
(pop)
(pop)
(push)
(assert (not (le x0 java.lang.reflect.Field)))
(check-sat)
(pop)
(push)
(assert (le x0 java.lang.reflect.Field))
(check-sat)
(push)
(assert (le x1 java.lang.StringBuffer))
(check-sat)
(pop)
(push)
(assert (not (le x1 java.lang.StringBuffer)))
(check-sat)
(pop)
(push)
(assert (le x0 java.lang.reflect.Field))
(check-sat)
(pop)
(push)
(assert (not (le x0 java.lang.reflect.Field)))
(check-sat)
(pop)
(pop)
(push)
(assert (not (le x0 java.lang.reflect.Field)))
(check-sat)
(pop)
(push)
(assert (le x1 java.lang.StringBuffer))
(check-sat)
(pop)
(push)
(assert (not (le x1 java.lang.StringBuffer)))
(check-sat)
(push)
(assert (le x1 java.lang.StringBuffer))
(check-sat)
(pop)
(push)
(assert (not (le x1 java.lang.StringBuffer)))
(check-sat)
(pop)
(push)
(assert (le x0 java.lang.reflect.Field))
(check-sat)
(pop)
(push)
(assert (not (le x0 java.lang.reflect.Field)))
(check-sat)
(pop)
(push)
(assert (le x0 java.lang.reflect.Field))
(check-sat)
(pop)
(push)
(assert (not (le x0 java.lang.reflect.Field)))
(check-sat)
(pop)
(pop)
(push)
(assert (le x1 java.lang.StringBuffer))
(check-sat)
(pop)
(push)
(assert (not (le x1 java.lang.StringBuffer)))
(check-sat)
(pop)
(push)
(assert (le x0 java.lang.reflect.Field))
(check-sat)
(pop)
(push)
(assert (not (le x0 java.lang.reflect.Field)))
(check-sat)
(pop)
(pop)
(push)
(assert (le x0 java.lang.reflect.Field))
(check-sat)
(pop)
(push)
(assert (not (le x0 java.lang.reflect.Field)))
(check-sat)
(pop)
(push)
(assert (le x0 java.lang.reflect.Field))
(check-sat)
(push)
(assert (le x0 java.lang.reflect.Field))
(check-sat)
(pop)
(push)
(assert (not (le x0 java.lang.reflect.Field)))
(check-sat)
(pop)
(push)
(assert (le x1 java.lang.String))
(check-sat)
(pop)
(push)
(assert (not (le x1 java.lang.String)))
(check-sat)
(push)
(assert (le x1 java.lang.String))
(check-sat)
(pop)
(push)
(assert (not (le x1 java.lang.String)))
(check-sat)
(pop)
(push)
(assert (le x1 java.lang.String))
(check-sat)
(pop)
(push)
(assert (not (le x1 java.lang.String)))
(check-sat)
(pop)
(pop)
(pop)
(push)
(assert (not (le x0 java.lang.reflect.Field)))
(check-sat)
(pop)
(push)
(assert (le x1 java.lang.String))
(check-sat)
(pop)
(push)
(assert (not (le x1 java.lang.String)))
(check-sat)
(pop)
(push)
(assert (le x0 java.lang.reflect.Field))
(check-sat)
(pop)
(push)
(assert (not (le x0 java.lang.reflect.Field)))
(check-sat)
(pop)
(pop)
(push)
(assert (not (le x0 java.lang.reflect.Field)))
(check-sat)
(pop)
